N = 4;
Capacity = 4;
ItemsPerCustomer = [5, 5, 8, 6];
maxItemsPerCustomer = 8;
binCapacity = 50;
SizesOfItems = [|
  40, 39, 30, 28, 26, 0, 0, 0
| 40, 33, 22, 21, 13, 0, 0, 0
| 39, 35, 19, 19, 13, 11, 10, 10
| 38, 22, 22, 17, 15, 11, 0, 0
|];
Distance = [|
  0, 46, 32, 51, 14
| 46, 0, 74, 9, 52
| 32, 74, 0, 80, 22
| 51, 9, 80, 0, 58
| 14, 52, 22, 58, 0
|];
